c CNF file generated from BLIF2CNF script.
c Original BLIF file was blif/rd53.blif
p cnf 40 211
1 -7 0
2 -7 0
3 -7 0
4 -7 0
7 -1 -2 -3 -4  0
-7 6 0
1 -8 0
2 -8 0
3 -8 0
5 -8 0
8 -1 -2 -3 -5  0
-8 6 0
1 -9 0
2 -9 0
4 -9 0
5 -9 0
9 -1 -2 -4 -5  0
-9 6 0
1 -10 0
3 -10 0
4 -10 0
5 -10 0
10 -1 -3 -4 -5  0
-10 6 0
2 -11 0
3 -11 0
4 -11 0
5 -11 0
11 -2 -3 -4 -5  0
-11 6 0
-6 7 8 9 10 11  0
1 -13 0
2 -13 0
3 -13 0
4 -13 0
5 -13 0
13 -1 -2 -3 -4 -5  0
-13 12 0
-1 -14 0
-2 -14 0
3 -14 0
4 -14 0
5 -14 0
14 1 2 -3 -4 -5  0
-14 12 0
-1 -15 0
2 -15 0
-3 -15 0
4 -15 0
5 -15 0
15 1 -2 3 -4 -5  0
-15 12 0
1 -16 0
-2 -16 0
-3 -16 0
4 -16 0
5 -16 0
16 -1 2 3 -4 -5  0
-16 12 0
-1 -17 0
2 -17 0
3 -17 0
-4 -17 0
5 -17 0
17 1 -2 -3 4 -5  0
-17 12 0
1 -18 0
-2 -18 0
3 -18 0
-4 -18 0
5 -18 0
18 -1 2 -3 4 -5  0
-18 12 0
1 -19 0
2 -19 0
-3 -19 0
-4 -19 0
5 -19 0
19 -1 -2 3 4 -5  0
-19 12 0
-1 -20 0
-2 -20 0
-3 -20 0
-4 -20 0
5 -20 0
20 1 2 3 4 -5  0
-20 12 0
-1 -21 0
2 -21 0
3 -21 0
4 -21 0
-5 -21 0
21 1 -2 -3 -4 5  0
-21 12 0
1 -22 0
-2 -22 0
3 -22 0
4 -22 0
-5 -22 0
22 -1 2 -3 -4 5  0
-22 12 0
1 -23 0
2 -23 0
-3 -23 0
4 -23 0
-5 -23 0
23 -1 -2 3 -4 5  0
-23 12 0
-1 -24 0
-2 -24 0
-3 -24 0
4 -24 0
-5 -24 0
24 1 2 3 -4 5  0
-24 12 0
1 -25 0
2 -25 0
3 -25 0
-4 -25 0
-5 -25 0
25 -1 -2 -3 4 5  0
-25 12 0
-1 -26 0
-2 -26 0
3 -26 0
-4 -26 0
-5 -26 0
26 1 2 -3 4 5  0
-26 12 0
-1 -27 0
2 -27 0
-3 -27 0
-4 -27 0
-5 -27 0
27 1 -2 3 4 5  0
-27 12 0
1 -28 0
-2 -28 0
-3 -28 0
-4 -28 0
-5 -28 0
28 -1 2 3 4 5  0
-28 12 0
-12 13 14 15 16 17 18 19 20 21 22 23 24 25 26 27 28  0
1 -30 0
-2 -30 0
-3 -30 0
4 -30 0
30 -1 2 3 -4  0
-30 29 0
-1 -31 0
-2 -31 0
3 -31 0
5 -31 0
31 1 2 -3 -5  0
-31 29 0
-1 -32 0
-3 -32 0
4 -32 0
5 -32 0
32 1 3 -4 -5  0
-32 29 0
-1 -33 0
2 -33 0
-4 -33 0
5 -33 0
33 1 -2 4 -5  0
-33 29 0
-2 -34 0
3 -34 0
-4 -34 0
5 -34 0
34 2 -3 4 -5  0
-34 29 0
1 -35 0
-3 -35 0
-4 -35 0
5 -35 0
35 -1 3 4 -5  0
-35 29 0
-1 -36 0
2 -36 0
3 -36 0
-5 -36 0
36 1 -2 -3 5  0
-36 29 0
1 -37 0
2 -37 0
-3 -37 0
-5 -37 0
37 -1 -2 3 5  0
-37 29 0
-2 -38 0
3 -38 0
4 -38 0
-5 -38 0
38 2 -3 -4 5  0
-38 29 0
2 -39 0
-3 -39 0
4 -39 0
-5 -39 0
39 -2 3 -4 5  0
-39 29 0
1 -40 0
3 -40 0
-4 -40 0
-5 -40 0
40 -1 -3 4 5  0
-40 29 0
-29 30 31 32 33 34 35 36 37 38 39 40  0
